start = 1;
limit = 6;
n = 14;
m=[|-1,16,-1,13,-1,19,-1,-1,-1,7,19,-1,4,9,
|-1,-1,14,-1,11,-1,20,5,2,14,-1,0,0,18,
|-1,2,-1,-1,5,16,12,9,-1,-1,7,-1,13,-1,
|4,-1,20,-1,8,-1,-1,-1,17,1,6,-1,-1,6,
|-1,13,-1,-1,-1,-1,-1,18,-1,-1,-1,14,-1,-1,
|15,-1,15,15,-1,-1,2,19,15,-1,-1,-1,-1,5,
|-1,-1,-1,-1,-1,5,-1,-1,-1,-1,19,-1,-1,-1,
|19,11,-1,9,-1,-1,-1,-1,-1,-1,0,13,4,4,
|-1,-1,-1,-1,-1,-1,-1,7,-1,13,-1,-1,0,-1,
|-1,16,19,-1,-1,9,17,-1,15,-1,1,-1,12,-1,
|-1,-1,17,18,0,6,-1,-1,19,-1,-1,14,-1,16,
|0,4,18,7,16,17,-1,-1,-1,-1,-1,-1,-1,-1,
|-1,12,-1,17,19,-1,4,-1,-1,9,20,-1,-1,0,
|-1,-1,12,-1,2,7,-1,20,-1,-1,-1,-1,-1,-1,
|]
;